2,3
3,9
5,6
7,2
8,9
10,6
12,3
14,0
15,7
17,5
19,8
22,0
24,2
26,4
28,6
30,9
33,1
35,3
37,1
37,1
37,1
37,1
37,1
37,1
37,1
37,1
37,1
37,1
37,1
37,1
37,1
37,1
37,1
37,1
37,1
37,1
37,1
37,1
37,1
37,1
37,1
37,1
37,1
0,0
0,0
